Route #1: 41 47 10 5 8 27 37
Route #2: 44 29 51 33 35 7 43
Route #3: 2 48 38 9 16 32 34 13 46
Route #4: 26 49 19 15 17 22 50 12 45 4
Route #5: 23 14 39 21 11 28 24 31 3
Route #6: 1 18 30 20 42 40
Route #7: 36 6 25
Cost 763